30356421479672684925010,13,1,2,08,13,1,2,014,11,1,2,015,12,1,2,010,10,1,2,012,7,1,2,015,6,1,2,05,6,1,2,014,3,1,2,09,10,1,2,011,15,1,2,06,12,1,2,04,11,1,2,07,11,1,2,08,7,1,2,04,7,1,2,06,6,1,2,07,1,1,2,07,7,1,2,01,12,1,2,09,14,1,2,03,3,1,2,06,1,1,2,03,5,1,2,01,6,1,2,09,9,1,2,05,1,1,2,08,4,1,2,05,2,1,2,06,7,1,2,013,3,1,2,012,9,1,2,02,2,1,2,011,8,1,2,015,14,1,2,09,5,1,2,011,11,1,2,02,1,1,2,012,6,1,2,014,1,1,2,015,14,1,2,09,5,1,2,011,13,1,2,02,5,1,2,013,5,1,2,014,6,1,2,06,13,1,2,05,13,1,2,014,7,1,2,02,6,1,2,0